# 3d Lennard-Jones gas
units lj
dimension 3
boundary p p p
atom_style atomic

lattice fcc 0.01
region simbox block 0 10 0 10 0 10
create_box 1 simbox
create_atoms 1 box

mass 1 1.0
velocity all create ${T} 87287

pair_style lj/cut 3.0
pair_coeff 1 1 1.0 1.0 3.0

fix 1 all nve
dump 1 all custom 10 dump_${i}.lammpstrj id type x y z vx vy vz
thermo 100
thermo_style custom time step temp press density etotal 
log log_${i}.lammps
run 5000
